NAME : F-n25-k9
CAPACITY : 721
NODE_COORD_SECTION
1   210   325
2   319   352
3   464   95
4   393   359
5   56   380
6   203   455
7   84   264
8   427   119
9   189   177
10   178   62
11   435   415
12   290   450
13   388   162
14   261   310
15   127   433
16   302   182
17   171   193
18   302   455
19   149   97
20   221   65
21   55   201
22   296   290
23   396   165
24   64   228
25   346   479
DEMAND_SECTION
1   0
2   90
3   43
4   78
5   55
6   82
7   99
8   15
9   66
10   47
11   29
12   61
13   32
14   36
15   23
16   48
17   30
18   17
19   70
20   63
21   59
22   27
23   35
24   72
25   36
DEPOT_SECTION
    1
    -1
EOF